language Essence 1.3

letting codeWordLength be 30
letting dist be
        function((1, 1) --> 0, (1, 2) --> 18, (1, 3) --> 23, (1, 4) --> 6, (1, 5) --> 19, (1, 6) --> 3, (1, 7) --> 18,
                 (1, 8) --> 4, (1, 9) --> 15, (1, 10) --> 3, (1, 11) --> 21, (1, 12) --> 7, (1, 13) --> 1,
                 (1, 14) --> 6, (1, 15) --> 9, (1, 16) --> 22, (1, 17) --> 14, (2, 1) --> 18, (2, 2) --> 0,
                 (2, 3) --> 6, (2, 4) --> 2, (2, 5) --> 7, (2, 6) --> 13, (2, 7) --> 1, (2, 8) --> 13, (2, 9) --> 4,
                 (2, 10) --> 6, (2, 11) --> 0, (2, 12) --> 7, (2, 13) --> 7, (2, 14) --> 2, (2, 15) --> 3,
                 (2, 16) --> 11, (2, 17) --> 15, (3, 1) --> 23, (3, 2) --> 6, (3, 3) --> 0, (3, 4) --> 4, (3, 5) --> 22,
                 (3, 6) --> 2, (3, 7) --> 9, (3, 8) --> 19, (3, 9) --> 15, (3, 10) --> 13, (3, 11) --> 21,
                 (3, 12) --> 0, (3, 13) --> 10, (3, 14) --> 0, (3, 15) --> 16, (3, 16) --> 18, (3, 17) --> 5,
                 (4, 1) --> 6, (4, 2) --> 2, (4, 3) --> 4, (4, 4) --> 0, (4, 5) --> 22, (4, 6) --> 21, (4, 7) --> 10,
                 (4, 8) --> 14, (4, 9) --> 19, (4, 10) --> 8, (4, 11) --> 17, (4, 12) --> 11, (4, 13) --> 21,
                 (4, 14) --> 18, (4, 15) --> 21, (4, 16) --> 13, (4, 17) --> 2, (5, 1) --> 19, (5, 2) --> 7,
                 (5, 3) --> 22, (5, 4) --> 22, (5, 5) --> 0, (5, 6) --> 16, (5, 7) --> 21, (5, 8) --> 22, (5, 9) --> 17,
                 (5, 10) --> 4, (5, 11) --> 23, (5, 12) --> 8, (5, 13) --> 9, (5, 14) --> 5, (5, 15) --> 15,
                 (5, 16) --> 14, (5, 17) --> 12, (6, 1) --> 3, (6, 2) --> 13, (6, 3) --> 2, (6, 4) --> 21,
                 (6, 5) --> 16, (6, 6) --> 0, (6, 7) --> 3, (6, 8) --> 16, (6, 9) --> 10, (6, 10) --> 15,
                 (6, 11) --> 16, (6, 12) --> 3, (6, 13) --> 19, (6, 14) --> 13, (6, 15) --> 1, (6, 16) --> 22,
                 (6, 17) --> 1, (7, 1) --> 18, (7, 2) --> 1, (7, 3) --> 9, (7, 4) --> 10, (7, 5) --> 21, (7, 6) --> 3,
                 (7, 7) --> 0, (7, 8) --> 0, (7, 9) --> 10, (7, 10) --> 18, (7, 11) --> 11, (7, 12) --> 0,
                 (7, 13) --> 14, (7, 14) --> 18, (7, 15) --> 11, (7, 16) --> 7, (7, 17) --> 20, (8, 1) --> 4,
                 (8, 2) --> 13, (8, 3) --> 19, (8, 4) --> 14, (8, 5) --> 22, (8, 6) --> 16, (8, 7) --> 0, (8, 8) --> 0,
                 (8, 9) --> 9, (8, 10) --> 8, (8, 11) --> 13, (8, 12) --> 16, (8, 13) --> 17, (8, 14) --> 16,
                 (8, 15) --> 8, (8, 16) --> 20, (8, 17) --> 3, (9, 1) --> 15, (9, 2) --> 4, (9, 3) --> 15,
                 (9, 4) --> 19, (9, 5) --> 17, (9, 6) --> 10, (9, 7) --> 10, (9, 8) --> 9, (9, 9) --> 0, (9, 10) --> 2,
                 (9, 11) --> 8, (9, 12) --> 14, (9, 13) --> 4, (9, 14) --> 20, (9, 15) --> 18, (9, 16) --> 13,
                 (9, 17) --> 3, (10, 1) --> 3, (10, 2) --> 6, (10, 3) --> 13, (10, 4) --> 8, (10, 5) --> 4,
                 (10, 6) --> 15, (10, 7) --> 18, (10, 8) --> 8, (10, 9) --> 2, (10, 10) --> 0, (10, 11) --> 11,
                 (10, 12) --> 7, (10, 13) --> 20, (10, 14) --> 6, (10, 15) --> 12, (10, 16) --> 13, (10, 17) --> 5,
                 (11, 1) --> 21, (11, 2) --> 0, (11, 3) --> 21, (11, 4) --> 17, (11, 5) --> 23, (11, 6) --> 16,
                 (11, 7) --> 11, (11, 8) --> 13, (11, 9) --> 8, (11, 10) --> 11, (11, 11) --> 0, (11, 12) --> 3,
                 (11, 13) --> 8, (11, 14) --> 8, (11, 15) --> 13, (11, 16) --> 15, (11, 17) --> 16, (12, 1) --> 7,
                 (12, 2) --> 7, (12, 3) --> 0, (12, 4) --> 11, (12, 5) --> 8, (12, 6) --> 3, (12, 7) --> 0,
                 (12, 8) --> 16, (12, 9) --> 14, (12, 10) --> 7, (12, 11) --> 3, (12, 12) --> 0, (12, 13) --> 9,
                 (12, 14) --> 2, (12, 15) --> 23, (12, 16) --> 3, (12, 17) --> 16, (13, 1) --> 1, (13, 2) --> 7,
                 (13, 3) --> 10, (13, 4) --> 21, (13, 5) --> 9, (13, 6) --> 19, (13, 7) --> 14, (13, 8) --> 17,
                 (13, 9) --> 4, (13, 10) --> 20, (13, 11) --> 8, (13, 12) --> 9, (13, 13) --> 0, (13, 14) --> 10,
                 (13, 15) --> 19, (13, 16) --> 22, (13, 17) --> 20, (14, 1) --> 6, (14, 2) --> 2, (14, 3) --> 0,
                 (14, 4) --> 18, (14, 5) --> 5, (14, 6) --> 13, (14, 7) --> 18, (14, 8) --> 16, (14, 9) --> 20,
                 (14, 10) --> 6, (14, 11) --> 8, (14, 12) --> 2, (14, 13) --> 10, (14, 14) --> 0, (14, 15) --> 12,
                 (14, 16) --> 11, (14, 17) --> 6, (15, 1) --> 9, (15, 2) --> 3, (15, 3) --> 16, (15, 4) --> 21,
                 (15, 5) --> 15, (15, 6) --> 1, (15, 7) --> 11, (15, 8) --> 8, (15, 9) --> 18, (15, 10) --> 12,
                 (15, 11) --> 13, (15, 12) --> 23, (15, 13) --> 19, (15, 14) --> 12, (15, 15) --> 0, (15, 16) --> 23,
                 (15, 17) --> 12, (16, 1) --> 22, (16, 2) --> 11, (16, 3) --> 18, (16, 4) --> 13, (16, 5) --> 14,
                 (16, 6) --> 22, (16, 7) --> 7, (16, 8) --> 20, (16, 9) --> 13, (16, 10) --> 13, (16, 11) --> 15,
                 (16, 12) --> 3, (16, 13) --> 22, (16, 14) --> 11, (16, 15) --> 23, (16, 16) --> 0, (16, 17) --> 16,
                 (17, 1) --> 14, (17, 2) --> 15, (17, 3) --> 5, (17, 4) --> 2, (17, 5) --> 12, (17, 6) --> 1,
                 (17, 7) --> 20, (17, 8) --> 3, (17, 9) --> 3, (17, 10) --> 5, (17, 11) --> 16, (17, 12) --> 16,
                 (17, 13) --> 20, (17, 14) --> 6, (17, 15) --> 12, (17, 16) --> 16, (17, 17) --> 0)
letting maxDist be 28
letting minDist be 115
letting nbCharacter be 17
letting numOfCodeWords be 13
